% Generated by MiniZinc 2.9.3
% Solver library: /home/icwmmarijnisse/Pumpkin/minizinc/lib
% Command line invocation: minizinc --compile --fzn ./instance.fzn --ozn ./instance.ozn --solver pumpkin ../../../../benchmarks/models/tsp/instances/tsp.mzn ../../../../benchmarks/models/tsp/instances/TSP_N15_4.dzn 

predicate pumpkin_circuit(array [int] of var int: x);
array [1..15] of int: X_INTRODUCED_33_ = [0,272,40,112,611,445,354,747,806,322,447,621,524,119,395];
array [1..15] of int: X_INTRODUCED_35_ = [272,0,922,591,195,261,46,726,447,2,533,948,826,552,704];
array [1..15] of int: X_INTRODUCED_37_ = [40,922,0,737,963,760,755,687,202,373,442,72,972,681,943];
array [1..15] of int: X_INTRODUCED_39_ = [112,591,737,0,339,639,322,680,869,128,738,922,308,520,317];
array [1..15] of int: X_INTRODUCED_41_ = [611,195,963,339,0,683,419,335,413,714,303,568,131,197,431];
array [1..15] of int: X_INTRODUCED_43_ = [445,261,760,639,683,0,681,963,389,694,767,925,179,631,583];
array [1..15] of int: X_INTRODUCED_45_ = [354,46,755,322,419,681,0,309,416,562,854,1,312,294,216];
array [1..15] of int: X_INTRODUCED_47_ = [747,726,687,680,335,963,309,0,441,805,594,622,671,330,477];
array [1..15] of int: X_INTRODUCED_49_ = [806,447,202,869,413,389,416,441,0,453,453,692,219,524,485];
array [1..15] of int: X_INTRODUCED_51_ = [322,2,373,128,714,694,562,805,453,0,813,923,983,816,754];
array [1..15] of int: X_INTRODUCED_53_ = [447,533,442,738,303,767,854,594,453,813,0,174,675,87,291];
array [1..15] of int: X_INTRODUCED_55_ = [621,948,72,922,568,925,1,622,692,923,174,0,528,680,649];
array [1..15] of int: X_INTRODUCED_57_ = [524,826,972,308,131,179,312,671,219,983,675,528,0,635,344];
array [1..15] of int: X_INTRODUCED_59_ = [119,552,681,520,197,631,294,330,524,816,87,680,635,0,96];
array [1..15] of int: X_INTRODUCED_61_ = [395,704,943,317,431,583,216,477,485,754,291,649,344,96,0];
array [1..16] of int: X_INTRODUCED_66_ = [1,-1,-1,-1,-1,-1,-1,-1,-1,-1,-1,-1,-1,-1,-1,-1];
var 1..15: X_INTRODUCED_16_;
var 1..15: X_INTRODUCED_17_;
var 1..15: X_INTRODUCED_18_;
var 1..15: X_INTRODUCED_19_;
var 1..15: X_INTRODUCED_20_;
var 1..15: X_INTRODUCED_21_;
var 1..15: X_INTRODUCED_22_;
var 1..15: X_INTRODUCED_23_;
var 1..15: X_INTRODUCED_24_;
var 1..15: X_INTRODUCED_25_;
var 1..15: X_INTRODUCED_26_;
var 1..15: X_INTRODUCED_27_;
var 1..15: X_INTRODUCED_28_;
var 1..15: X_INTRODUCED_29_;
var 1..15: X_INTRODUCED_30_;
var 0..13787: Objective:: output_var:: is_defined_var;
var 0..806: X_INTRODUCED_34_ ::var_is_introduced :: is_defined_var;
var 0..948: X_INTRODUCED_36_ ::var_is_introduced :: is_defined_var;
var 0..972: X_INTRODUCED_38_ ::var_is_introduced :: is_defined_var;
var 0..922: X_INTRODUCED_40_ ::var_is_introduced :: is_defined_var;
var 0..963: X_INTRODUCED_42_ ::var_is_introduced :: is_defined_var;
var 0..963: X_INTRODUCED_44_ ::var_is_introduced :: is_defined_var;
var 0..854: X_INTRODUCED_46_ ::var_is_introduced :: is_defined_var;
var 0..963: X_INTRODUCED_48_ ::var_is_introduced :: is_defined_var;
var 0..869: X_INTRODUCED_50_ ::var_is_introduced :: is_defined_var;
var 0..983: X_INTRODUCED_52_ ::var_is_introduced :: is_defined_var;
var 0..854: X_INTRODUCED_54_ ::var_is_introduced :: is_defined_var;
var 0..948: X_INTRODUCED_56_ ::var_is_introduced :: is_defined_var;
var 0..983: X_INTRODUCED_58_ ::var_is_introduced :: is_defined_var;
var 0..816: X_INTRODUCED_60_ ::var_is_introduced :: is_defined_var;
var 0..943: X_INTRODUCED_62_ ::var_is_introduced :: is_defined_var;
array [1..15] of var int: Successor:: output_array([1..15]) = [X_INTRODUCED_16_,X_INTRODUCED_17_,X_INTRODUCED_18_,X_INTRODUCED_19_,X_INTRODUCED_20_,X_INTRODUCED_21_,X_INTRODUCED_22_,X_INTRODUCED_23_,X_INTRODUCED_24_,X_INTRODUCED_25_,X_INTRODUCED_26_,X_INTRODUCED_27_,X_INTRODUCED_28_,X_INTRODUCED_29_,X_INTRODUCED_30_];
array [1..16] of var int: X_INTRODUCED_65_ ::var_is_introduced  = [Objective,X_INTRODUCED_34_,X_INTRODUCED_36_,X_INTRODUCED_38_,X_INTRODUCED_40_,X_INTRODUCED_42_,X_INTRODUCED_44_,X_INTRODUCED_46_,X_INTRODUCED_48_,X_INTRODUCED_50_,X_INTRODUCED_52_,X_INTRODUCED_54_,X_INTRODUCED_56_,X_INTRODUCED_58_,X_INTRODUCED_60_,X_INTRODUCED_62_];
constraint pumpkin_circuit(Successor);
constraint array_int_element(X_INTRODUCED_16_,X_INTRODUCED_33_,X_INTRODUCED_34_):: defines_var(X_INTRODUCED_34_);
constraint array_int_element(X_INTRODUCED_17_,X_INTRODUCED_35_,X_INTRODUCED_36_):: defines_var(X_INTRODUCED_36_);
constraint array_int_element(X_INTRODUCED_18_,X_INTRODUCED_37_,X_INTRODUCED_38_):: defines_var(X_INTRODUCED_38_);
constraint array_int_element(X_INTRODUCED_19_,X_INTRODUCED_39_,X_INTRODUCED_40_):: defines_var(X_INTRODUCED_40_);
constraint array_int_element(X_INTRODUCED_20_,X_INTRODUCED_41_,X_INTRODUCED_42_):: defines_var(X_INTRODUCED_42_);
constraint array_int_element(X_INTRODUCED_21_,X_INTRODUCED_43_,X_INTRODUCED_44_):: defines_var(X_INTRODUCED_44_);
constraint array_int_element(X_INTRODUCED_22_,X_INTRODUCED_45_,X_INTRODUCED_46_):: defines_var(X_INTRODUCED_46_);
constraint array_int_element(X_INTRODUCED_23_,X_INTRODUCED_47_,X_INTRODUCED_48_):: defines_var(X_INTRODUCED_48_);
constraint array_int_element(X_INTRODUCED_24_,X_INTRODUCED_49_,X_INTRODUCED_50_):: defines_var(X_INTRODUCED_50_);
constraint array_int_element(X_INTRODUCED_25_,X_INTRODUCED_51_,X_INTRODUCED_52_):: defines_var(X_INTRODUCED_52_);
constraint array_int_element(X_INTRODUCED_26_,X_INTRODUCED_53_,X_INTRODUCED_54_):: defines_var(X_INTRODUCED_54_);
constraint array_int_element(X_INTRODUCED_27_,X_INTRODUCED_55_,X_INTRODUCED_56_):: defines_var(X_INTRODUCED_56_);
constraint array_int_element(X_INTRODUCED_28_,X_INTRODUCED_57_,X_INTRODUCED_58_):: defines_var(X_INTRODUCED_58_);
constraint array_int_element(X_INTRODUCED_29_,X_INTRODUCED_59_,X_INTRODUCED_60_):: defines_var(X_INTRODUCED_60_);
constraint array_int_element(X_INTRODUCED_30_,X_INTRODUCED_61_,X_INTRODUCED_62_):: defines_var(X_INTRODUCED_62_);
constraint int_lin_eq(X_INTRODUCED_66_,X_INTRODUCED_65_,0):: defines_var(Objective);
solve  minimize Objective;
